2
682    482    384 32
986    486    422 41
10
310    179    189 2 2
207    174    31  2 2 
336    196    125 4 4
498    426    243 1 1
257    250    52  2 2
280    286    106 1 1
441    136    136 1 1 
212    170    38  1 1
472    121    24  3 3
379    291    76  3 3
